62568
48,63,142,167,351,373,407,437,519,534,605,653,683,799,943,993,1249,1400,1411,1546,1574,1918,2260,2415,2457,2538,2720,2811,3097,3156,3160,3195,3215,3222,3228,3364,3400,3446,3510,3531,3787,3857,3862,3882,3888,3950,3968,3981,4051,4080,4137,4359,4383,4464,4512,4590,4761,4771,4846,4963,5079,5101,5346,5418,5583,5693,5787,5952,6057,6267,6307,6367,6372,6387,6484,6580,6590,6700,6882,6984,7043,7059,7063,7067,7073,7179,7205,7327,7360,7446,7526,7625,7834,7915,7916,7946,8059,8075,8294,8431,8514,8557,8570,8614,9092,9200,9231,9291,9346,9427,9628,9761,9888,9986
